SCIP version 5.0.0 [precision: 8 byte] [memory: block] [mode: optimized] [LP solver: NONE] [GitHash: 3bbd232]
Copyright (C) 2002-2017 Konrad-Zuse-Zentrum fuer Informationstechnik Berlin (ZIB)

External codes: 
  Readline EditLine w  GNU library for command line editing (gnu.org/s/readline)
  CppAD 20160000.1     Algorithmic Differentiation of C++ algorithms developed by B. Bell (www.coin-or.org/CppAD)
  ZLIB 1.2.5           General purpose compression library by J. Gailly and M. Adler (zlib.net)
  GMP 6.1.2            GNU Multiple Precision Arithmetic Library developed by T. Granlund (gmplib.org)

user parameter file <scip.set> not found - using default parameters

read problem <../../Split_data/output/breast/7/0_sample_breast.logreg>
============

File name	:	../../Split_data/output/breast/7/0_sample_breast.logreg
Problem name 	:	0_sample_breast
Number of data	:	156
Number of var	:	33
The given data has linear dependence
16 sets of column vector are linearly dependent:
elements are all 0
elements are all 0
elements are all 0
elements are all 0
elements are all 0
elements are all 0

[dim=1] time: 0.003891
[dim=2] time: 0.006586
[dim=3] time: 0.009004
[dim=4] time: 0.01109
[dim=5] time: 0.013182
[dim=6] time: 0.015378
[dim=7] time: 0.019899
[dim=8] Time of forward = 0.022682sec.
AIC: 140.855
k: 7

[dim=17] time: 0.005213
[dim=16] time: 0.007891
[dim=15] time: 0.01038
[dim=14] time: 0.013596
[dim=13] time: 0.01587
[dim=12] time: 0.01816
[dim=11] time: 0.020287
[dim=10] time: 0.022157
[dim=9] time: 0.023841
[dim=8] time: 0.025403
[dim=7] time: 0.026821
[dim=6] Time of backward = 0.027918sec.
AIC: 139.134
k: 7
